100
91 93
7 5
27 91
21 47
33 11
19 99
59 25
69 79
11 73
21 35
59 45
99 81
71 47
53 83
87 1
79 67
59 65
67 21
27 1
81 93
59 89
95 23
73 25
41 25
3 65
59 83
83 97
5 83
71 35
37 97
29 93
19 21
83 13
97 67
31 83
65 17
19 63
59 23
17 25
45 27
89 7
19 41
23 39
23 21
83 61
11 93
17 11
35 11
21 59
21 69
71 13
63 13
49 21
83 31
41 97
85 15
77 73
57 1
83 11
1 75
45 71
41 55
45 13
DEMAND_SECTION Best value: 1634
0 
4 
18 
22 
14 
5 
9 
7 
20 
19 
7 
18 
20 
2 
11 
10 
5 
21 
20 
1 
15 
15 
14 
19 
22 
21 
22 
6 
24 
14 
14 
2 
15 
21 
15 
6 
23 
14 
26 
15 
15 
23 
7 
22 
26 
20 
3 
2 
15 
2 
21 
12 
4 
10 
23 
4 
24 
17 
2 
20 
18 
19 
8 